s td 25 4 25
b 1 4 8
b 2 6 9
b 3 1 10
b 4 12 19
b 5 13 24
b 6 14 17
b 7 14 19
b 8 14 22
b 9 15 23
b 10 2 7 15
b 11 7 15 20
b 12 4 5 11
b 13 4 11 22
b 14 4 20 22
b 15 4 6 20
b 16 18 21 24
b 17 6 7 20
b 18 1 6 7 21
b 19 6 7 21
b 20 7 21 24
b 21 21 24
b 22 24
b 23 3
b 24 16
b 25 25
1 15
1 23
1 24
1 25
2 19
3 18
4 7
5 22
6 8
7 8
8 14
9 11
10 11
11 17
12 13
13 14
14 15
15 17
16 21
17 19
18 19
19 20
20 21
21 22
